Instance Name : r104
Date : 2022-07-20
Solution
Route 1 : 95 98 14 44 38 86 16 91 100 37
Route 2 : 6 96 99 84 61 85 93 59 94
Route 3 : 92 97 87 57 2 13 58
Route 4 : 42 43 15 41 22 75 74 73 21 40
Route 5 : 26 72 56 23 67 39 55 4 25 54
Route 6 : 76 77 28
Route 7 : 12 80 68 24 29 79 33 81 51 50 1
Route 8 : 3 78 34 35 9 71 65 66 20
Route 9 : 69 70 30 32 90 63 10 31 27
Route 10 : 52 88 62 11 64 49 36 47 19 7
Route 11 : 18 82 48 46 8 45 17 5 83 60 89
Route 12 : 53
